\ENCODING=ISO-8859-1
\Problem name: ilog.cplex

Maximize
 obj: [ 52 x9 ^2 + 34 x9 * x8 + 104 x9 * x7 + 14 x9 * x6 + 52 x9 * x5
      + 42 x9 * x4 + 96 x9 * x3 + 164 x9 * x2 + 130 x9 * x1 + 80 x9 * x0
      + 6 x8 ^2 + 142 x8 * x7 + 12 x8 * x6 + 44 x8 * x5 + 178 x8 * x4
      + 88 x8 * x3 + 126 x8 * x2 + 54 x8 * x1 + 52 x8 * x0 + 162 x7 ^2
      + 100 x7 * x6 + 80 x7 * x5 + 158 x7 * x4 + 166 x7 * x3 + 114 x7 * x2
      + 166 x7 * x1 + 190 x7 * x0 + 92 x6 ^2 + 18 x6 * x5 + 114 x6 * x4
      + 182 x6 * x3 + 76 x6 * x2 + 142 x6 * x1 + 182 x6 * x0 + 170 x5 ^2
      + 138 x5 * x4 + 174 x5 * x3 + 66 x5 * x2 + 86 x5 * x1 + 10 x5 * x0
      + 96 x4 ^2 + 200 x4 * x3 + 114 x4 * x2 + 40 x4 * x1 + 88 x4 * x0
      + 8 x3 ^2 + 14 x3 * x2 + 22 x3 * x1 + 70 x3 * x0 + 44 x2 ^2 + 184 x2 * x1
      + 46 x2 * x0 + 156 x1 ^2 + 110 x1 * x0 + 182 x0 ^2 ] / 2
Subject To
 c1: 39 x9 + 48 x8 + 2 x7 + 10 x6 + 26 x5 + 43 x4 + 3 x3 + 12 x2 + 33 x1
     + 34 x0 <= 145
Bounds
 0 <= x9 <= 1
 0 <= x8 <= 1
 0 <= x7 <= 1
 0 <= x6 <= 1
 0 <= x5 <= 1
 0 <= x4 <= 1
 0 <= x3 <= 1
 0 <= x2 <= 1
 0 <= x1 <= 1
 0 <= x0 <= 1
Generals
 x9  x8  x7  x6  x5  x4  x3  x2  x1  x0 
End
